language ESSENCE' 1.0
letting w be 6
letting n be 36
letting noCrates be 1
letting noGoals be 1
letting pInit be 20
letting stps be 5
letting crates be [15]
letting goals be [16]
letting noWalls be 20
letting walls be [0, 1, 2, 3, 4, 5, 6, 11, 12, 17, 18, 23, 24, 29, 30, 31, 32, 33, 34, 35]